12
1 2
2 7
3 4
4 9
5 10
6 5
7 6
8 2
9 5
10 6
11 10
32
0 1 73
1 0 73
0 2 39
2 0 39
0 3 36
3 0 36
0 4 39
4 0 39
0 5 12
5 0 12
0 6 98
6 0 98
0 7 32
7 0 32
0 8 53
8 0 53
0 9 87
9 0 87
0 10 83
10 0 83
0 11 17
11 0 17
1 2 38
1 8 67
2 4 2
3 6 54
3 10 96
3 11 42
4 5 94
4 10 50
6 11 98
10 11 58